(set-logic ALL)
(set-option :produce-models true)
(declare-sort BoundSet 0)
(declare-sort UnboundSet 0)
(set-option :finite-model-find true)
(declare-fun IsPrediction (BoundSet) Bool)
(declare-fun IsDoom (BoundSet) Bool)
(declare-fun IsTrustworthy (BoundSet) Bool)
(assert (not (=> (exists ((c BoundSet)) (exists ((a BoundSet)) (and (IsPrediction c) (not (IsDoom a))))) (exists ((e BoundSet)) (exists ((a BoundSet)) (and (IsTrustworthy e) (not (IsDoom a))))))))
(check-sat)
(get-model)